25 40
1 2 4
1 6 5
2 3 5
2 7 2
3 4 3
3 8 5
4 5 2
4 9 3
5 10 5
6 7 5
6 11 1
7 8 2
7 12 4
8 9 2
8 13 4
9 10 5
9 14 5
10 15 1
11 12 2
11 16 4
12 13 1
12 17 3
13 14 1
13 18 5
14 15 3
14 19 1
15 20 5
16 17 3
16 21 5
17 18 2
17 22 2
18 19 5
18 23 4
19 20 1
19 24 4
20 25 4
21 22 4
22 23 3
23 24 1
24 25 2
